multiobj/instances/uniform/Ter.5.4.0.80.1.in
5 4
0 771 544 977 248 
771 0 574 244 593 
544 574 0 691 433 
977 244 691 0 73 
248 593 433 73 0 
0 166 67 896 709 
166 0 536 272 903 
67 536 0 229 860 
896 272 229 0 856 
709 903 860 856 0 
0 95 147 994 762 
95 0 614 437 670 
147 614 0 199 894 
994 437 199 0 755 
762 670 894 755 0 
0 24 193 825 880 
24 0 476 308 927 
193 476 0 179 900 
825 308 179 0 942 
880 927 900 942 0 
0 281 179 947 663 
281 0 362 84 957 
179 362 0 49 961 
947 84 49 0 848 
663 957 961 848 0 
