multiobj/solutions/Ter.5.4.0.80.1.out
4 4
1 2 0 3 4 
4312076 4519224 4451462 3881976 
1 0 2 3 4 
4359768 4717752 4448674 3943664 
3 2 0 1 4 
4373408 4410492 4455254 4174034 
3 0 2 1 4 
4431068 4557400 4399422 4247648 
